p edge 116 1971
e 1 7
e 1 16
e 1 20
e 1 23
e 1 24
e 1 25
e 1 31
e 1 32
e 1 35
e 1 36
e 1 41
e 1 43
e 1 46
e 1 47
e 1 55
e 1 57
e 1 58
e 1 65
e 1 73
e 1 75
e 1 79
e 1 83
e 1 91
e 1 93
e 1 97
e 1 100
e 1 101
e 1 102
e 1 106
e 1 107
e 1 109
e 1 113
e 1 114
e 1 115
e 1 116
e 2 5
e 2 7
e 2 9
e 2 13
e 2 14
e 2 18
e 2 21
e 2 25
e 2 29
e 2 32
e 2 35
e 2 39
e 2 42
e 2 48
e 2 52
e 2 56
e 2 57
e 2 59
e 2 68
e 2 69
e 2 70
e 2 73
e 2 78
e 2 79
e 2 80
e 2 82
e 2 86
e 2 87
e 2 89
e 2 92
e 2 93
e 2 94
e 2 98
e 2 99
e 2 108
e 2 109
e 2 110
e 2 111
e 2 112
e 2 113
e 2 114
e 2 116
e 3 5
e 3 11
e 3 14
e 3 20
e 3 27
e 3 35
e 3 38
e 3 39
e 3 41
e 3 46
e 3 47
e 3 54
e 3 59
e 3 65
e 3 66
e 3 72
e 3 75
e 3 76
e 3 79
e 3 82
e 3 85
e 3 86
e 3 87
e 3 88
e 3 89
e 3 92
e 3 93
e 3 94
e 3 95
e 3 96
e 3 97
e 3 98
e 3 103
e 3 105
e 3 106
e 3 114
e 4 12
e 4 13
e 4 15
e 4 17
e 4 19
e 4 26
e 4 30
e 4 32
e 4 39
e 4 45
e 4 48
e 4 72
e 4 73
e 4 76
e 4 77
e 4 78
e 4 80
e 4 84
e 4 86
e 4 87
e 4 89
e 4 94
e 4 96
e 4 97
e 4 98
e 4 99
e 4 102
e 4 106
e 4 109
e 4 110
e 4 114
e 5 7
e 5 18
e 5 19
e 5 25
e 5 26
e 5 38
e 5 43
e 5 44
e 5 46
e 5 62
e 5 64
e 5 65
e 5 67
e 5 68
e 5 73
e 5 74
e 5 75
e 5 78
e 5 79
e 5 80
e 5 82
e 5 90
e 5 91
e 5 95
e 5 98
e 5 107
e 5 108
e 5 109
e 5 112
e 5 113
e 6 7
e 6 11
e 6 13
e 6 17
e 6 20
e 6 24
e 6 25
e 6 26
e 6 29
e 6 31
e 6 32
e 6 33
e 6 34
e 6 41
e 6 43
e 6 45
e 6 48
e 6 54
e 6 58
e 6 59
e 6 64
e 6 65
e 6 66
e 6 71
e 6 72
e 6 77
e 6 80
e 6 83
e 6 86
e 6 92
e 6 95
e 6 98
e 6 110
e 6 113
e 6 114
e 6 115
e 7 20
e 7 21
e 7 23
e 7 27
e 7 29
e 7 51
e 7 60
e 7 62
e 7 63
e 7 64
e 7 74
e 7 76
e 7 83
e 7 85
e 7 98
e 7 99
e 7 103
e 7 107
e 7 109
e 7 110
e 7 111
e 7 116
e 8 16
e 8 17
e 8 20
e 8 23
e 8 26
e 8 28
e 8 30
e 8 33
e 8 35
e 8 37
e 8 40
e 8 42
e 8 52
e 8 63
e 8 64
e 8 65
e 8 66
e 8 68
e 8 77
e 8 81
e 8 86
e 8 93
e 8 96
e 8 102
e 8 106
e 8 109
e 8 110
e 8 113
e 8 115
e 9 10
e 9 11
e 9 12
e 9 14
e 9 17
e 9 21
e 9 23
e 9 25
e 9 28
e 9 29
e 9 31
e 9 34
e 9 37
e 9 40
e 9 42
e 9 44
e 9 68
e 9 71
e 9 76
e 9 81
e 9 82
e 9 85
e 9 86
e 9 87
e 9 89
e 9 90
e 9 91
e 9 104
e 9 107
e 9 110
e 9 111
e 10 12
e 10 22
e 10 26
e 10 27
e 10 28
e 10 31
e 10 32
e 10 35
e 10 40
e 10 43
e 10 45
e 10 46
e 10 49
e 10 51
e 10 57
e 10 59
e 10 61
e 10 63
e 10 66
e 10 68
e 10 71
e 10 75
e 10 77
e 10 79
e 10 80
e 10 81
e 10 85
e 10 87
e 10 88
e 10 92
e 10 93
e 10 97
e 10 100
e 10 102
e 10 104
e 10 106
e 11 13
e 11 17
e 11 20
e 11 21
e 11 22
e 11 23
e 11 26
e 11 29
e 11 34
e 11 37
e 11 50
e 11 51
e 11 55
e 11 56
e 11 60
e 11 63
e 11 64
e 11 66
e 11 68
e 11 71
e 11 85
e 11 87
e 11 88
e 11 89
e 11 93
e 11 96
e 11 101
e 11 102
e 11 103
e 11 105
e 11 112
e 11 113
e 11 116
e 12 18
e 12 24
e 12 36
e 12 38
e 12 41
e 12 44
e 12 46
e 12 50
e 12 65
e 12 72
e 12 75
e 12 81
e 12 91
e 12 94
e 12 97
e 12 99
e 12 102
e 12 105
e 12 106
e 12 107
e 13 17
e 13 18
e 13 26
e 13 28
e 13 32
e 13 38
e 13 45
e 13 47
e 13 50
e 13 51
e 13 59
e 13 65
e 13 67
e 13 71
e 13 74
e 13 79
e 13 83
e 13 85
e 13 87
e 13 88
e 13 90
e 13 91
e 13 92
e 13 93
e 13 94
e 13 101
e 13 112
e 13 116
e 14 17
e 14 18
e 14 27
e 14 33
e 14 43
e 14 47
e 14 48
e 14 49
e 14 53
e 14 54
e 14 55
e 14 57
e 14 64
e 14 66
e 14 68
e 14 69
e 14 77
e 14 80
e 14 86
e 14 94
e 14 99
e 14 102
e 14 103
e 14 106
e 14 108
e 14 110
e 14 111
e 15 17
e 15 18
e 15 23
e 15 26
e 15 33
e 15 36
e 15 37
e 15 40
e 15 41
e 15 44
e 15 60
e 15 64
e 15 72
e 15 74
e 15 78
e 15 81
e 15 84
e 15 88
e 15 92
e 15 95
e 15 97
e 15 98
e 15 108
e 15 110
e 15 111
e 15 113
e 15 115
e 16 17
e 16 19
e 16 24
e 16 37
e 16 38
e 16 42
e 16 49
e 16 50
e 16 55
e 16 58
e 16 62
e 16 64
e 16 67
e 16 74
e 16 76
e 16 79
e 16 91
e 16 94
e 16 96
e 16 106
e 16 108
e 16 112
e 16 114
e 16 116
e 17 21
e 17 23
e 17 29
e 17 35
e 17 37
e 17 46
e 17 48
e 17 49
e 17 51
e 17 57
e 17 59
e 17 65
e 17 72
e 17 75
e 17 76
e 17 79
e 17 81
e 17 86
e 17 90
e 17 92
e 17 100
e 17 106
e 17 107
e 17 108
e 17 109
e 17 111
e 17 113
e 17 114
e 17 115
e 18 20
e 18 22
e 18 25
e 18 26
e 18 29
e 18 30
e 18 31
e 18 34
e 18 37
e 18 41
e 18 44
e 18 45
e 18 46
e 18 51
e 18 64
e 18 74
e 18 83
e 18 87
e 18 88
e 18 89
e 18 96
e 18 97
e 18 106
e 18 108
e 19 21
e 19 26
e 19 28
e 19 31
e 19 36
e 19 39
e 19 42
e 19 45
e 19 52
e 19 53
e 19 55
e 19 56
e 19 58
e 19 63
e 19 69
e 19 70
e 19 75
e 19 84
e 19 92
e 19 97
e 19 102
e 20 21
e 20 23
e 20 29
e 20 39
e 20 40
e 20 41
e 20 42
e 20 43
e 20 44
e 20 49
e 20 56
e 20 58
e 20 59
e 20 62
e 20 73
e 20 74
e 20 82
e 20 87
e 20 91
e 20 94
e 20 95
e 20 99
e 20 103
e 20 110
e 20 112
e 20 113
e 20 115
e 20 116
e 21 28
e 21 29
e 21 30
e 21 32
e 21 33
e 21 34
e 21 40
e 21 42
e 21 43
e 21 46
e 21 49
e 21 57
e 21 58
e 21 59
e 21 61
e 21 62
e 21 64
e 21 66
e 21 69
e 21 72
e 21 74
e 21 75
e 21 78
e 21 84
e 21 87
e 21 88
e 21 89
e 21 92
e 21 95
e 21 96
e 21 100
e 21 101
e 21 105
e 21 110
e 21 111
e 21 116
e 22 23
e 22 25
e 22 26
e 22 27
e 22 29
e 22 30
e 22 31
e 22 33
e 22 35
e 22 38
e 22 45
e 22 48
e 22 49
e 22 53
e 22 57
e 22 63
e 22 64
e 22 66
e 22 67
e 22 68
e 22 75
e 22 77
e 22 80
e 22 82
e 22 86
e 22 87
e 22 88
e 22 89
e 22 91
e 22 94
e 22 95
e 22 96
e 22 102
e 22 103
e 22 105
e 22 110
e 22 111
e 22 113
e 22 114
e 22 115
e 23 33
e 23 34
e 23 35
e 23 36
e 23 39
e 23 41
e 23 42
e 23 45
e 23 47
e 23 53
e 23 54
e 23 55
e 23 57
e 23 60
e 23 66
e 23 70
e 23 73
e 23 74
e 23 77
e 23 80
e 23 83
e 23 92
e 23 93
e 23 95
e 23 96
e 23 97
e 23 98
e 23 111
e 23 114
e 23 116
e 24 28
e 24 33
e 24 35
e 24 40
e 24 43
e 24 46
e 24 50
e 24 52
e 24 55
e 24 57
e 24 60
e 24 61
e 24 63
e 24 66
e 24 75
e 24 77
e 24 79
e 24 86
e 24 100
e 24 101
e 24 103
e 24 106
e 24 109
e 24 110
e 24 114
e 25 28
e 25 31
e 25 32
e 25 33
e 25 34
e 25 39
e 25 41
e 25 43
e 25 44
e 25 50
e 25 51
e 25 54
e 25 57
e 25 61
e 25 63
e 25 65
e 25 67
e 25 69
e 25 71
e 25 72
e 25 76
e 25 77
e 25 81
e 25 84
e 25 89
e 25 90
e 25 93
e 25 96
e 25 99
e 25 101
e 25 103
e 25 110
e 25 111
e 25 113
e 26 27
e 26 31
e 26 36
e 26 39
e 26 40
e 26 50
e 26 51
e 26 56
e 26 59
e 26 61
e 26 63
e 26 70
e 26 75
e 26 77
e 26 79
e 26 80
e 26 81
e 26 82
e 26 87
e 26 92
e 26 93
e 26 94
e 26 98
e 26 100
e 26 105
e 26 110
e 27 29
e 27 33
e 27 35
e 27 39
e 27 43
e 27 48
e 27 50
e 27 51
e 27 52
e 27 55
e 27 58
e 27 59
e 27 62
e 27 65
e 27 69
e 27 72
e 27 75
e 27 79
e 27 81
e 27 84
e 27 85
e 27 96
e 27 99
e 27 106
e 27 107
e 27 110
e 28 31
e 28 33
e 28 40
e 28 46
e 28 48
e 28 49
e 28 54
e 28 56
e 28 59
e 28 63
e 28 66
e 28 69
e 28 77
e 28 78
e 28 93
e 28 94
e 28 95
e 28 98
e 28 103
e 28 106
e 28 107
e 28 112
e 28 115
e 29 35
e 29 36
e 29 40
e 29 44
e 29 45
e 29 53
e 29 54
e 29 55
e 29 58
e 29 64
e 29 67
e 29 68
e 29 74
e 29 75
e 29 77
e 29 79
e 29 82
e 29 83
e 29 85
e 29 86
e 29 90
e 29 91
e 29 106
e 29 107
e 29 111
e 30 31
e 30 51
e 30 53
e 30 62
e 30 64
e 30 65
e 30 71
e 30 73
e 30 78
e 30 82
e 30 90
e 30 91
e 30 93
e 30 95
e 30 96
e 30 97
e 30 111
e 30 113
e 30 115
e 31 35
e 31 39
e 31 43
e 31 47
e 31 48
e 31 50
e 31 51
e 31 61
e 31 63
e 31 68
e 31 74
e 31 77
e 31 78
e 31 81
e 31 83
e 31 85
e 31 94
e 31 96
e 31 99
e 31 101
e 31 107
e 31 113
e 31 115
e 31 116
e 32 33
e 32 34
e 32 37
e 32 38
e 32 42
e 32 50
e 32 53
e 32 54
e 32 61
e 32 66
e 32 75
e 32 76
e 32 79
e 32 81
e 32 82
e 32 83
e 32 87
e 32 89
e 32 94
e 32 96
e 32 100
e 32 103
e 32 106
e 32 107
e 32 113
e 33 35
e 33 40
e 33 44
e 33 45
e 33 48
e 33 53
e 33 55
e 33 60
e 33 64
e 33 65
e 33 67
e 33 68
e 33 71
e 33 76
e 33 80
e 33 81
e 33 82
e 33 83
e 33 89
e 33 94
e 33 100
e 33 101
e 33 102
e 33 104
e 33 105
e 33 109
e 33 111
e 33 115
e 34 36
e 34 42
e 34 56
e 34 62
e 34 65
e 34 69
e 34 71
e 34 74
e 34 80
e 34 82
e 34 83
e 34 90
e 34 94
e 34 98
e 34 99
e 34 104
e 34 109
e 34 110
e 34 111
e 35 39
e 35 42
e 35 43
e 35 45
e 35 48
e 35 50
e 35 51
e 35 52
e 35 55
e 35 62
e 35 73
e 35 77
e 35 79
e 35 81
e 35 84
e 35 88
e 35 90
e 35 94
e 35 97
e 35 101
e 35 102
e 35 103
e 35 105
e 35 114
e 35 115
e 36 40
e 36 47
e 36 52
e 36 55
e 36 59
e 36 60
e 36 66
e 36 69
e 36 71
e 36 73
e 36 74
e 36 77
e 36 82
e 36 85
e 36 94
e 36 99
e 36 101
e 36 104
e 36 105
e 36 106
e 36 110
e 36 112
e 36 113
e 36 114
e 36 116
e 37 39
e 37 49
e 37 52
e 37 53
e 37 54
e 37 56
e 37 58
e 37 61
e 37 62
e 37 64
e 37 67
e 37 69
e 37 76
e 37 77
e 37 78
e 37 97
e 37 99
e 37 100
e 37 102
e 37 104
e 37 111
e 38 40
e 38 42
e 38 46
e 38 50
e 38 52
e 38 53
e 38 56
e 38 59
e 38 60
e 38 63
e 38 64
e 38 68
e 38 69
e 38 71
e 38 72
e 38 75
e 38 76
e 38 77
e 38 81
e 38 84
e 38 85
e 38 87
e 38 99
e 38 102
e 38 103
e 38 106
e 38 107
e 38 113
e 38 114
e 38 116
e 39 40
e 39 41
e 39 45
e 39 49
e 39 50
e 39 53
e 39 56
e 39 57
e 39 64
e 39 65
e 39 66
e 39 67
e 39 69
e 39 75
e 39 77
e 39 86
e 39 88
e 39 89
e 39 91
e 39 95
e 39 97
e 39 98
e 39 100
e 39 106
e 39 108
e 39 114
e 39 115
e 40 45
e 40 54
e 40 59
e 40 60
e 40 66
e 40 71
e 40 74
e 40 75
e 40 80
e 40 81
e 40 82
e 40 83
e 40 92
e 40 101
e 40 103
e 40 116
e 41 42
e 41 47
e 41 48
e 41 56
e 41 58
e 41 63
e 41 64
e 41 66
e 41 68
e 41 70
e 41 73
e 41 76
e 41 79
e 41 84
e 41 85
e 41 87
e 41 89
e 41 93
e 41 94
e 41 101
e 41 105
e 41 106
e 41 108
e 41 116
e 42 46
e 42 47
e 42 54
e 42 56
e 42 57
e 42 66
e 42 72
e 42 76
e 42 77
e 42 79
e 42 81
e 42 82
e 42 83
e 42 86
e 42 95
e 42 98
e 42 100
e 42 102
e 42 106
e 43 46
e 43 47
e 43 48
e 43 49
e 43 52
e 43 53
e 43 54
e 43 55
e 43 56
e 43 57
e 43 58
e 43 64
e 43 71
e 43 73
e 43 76
e 43 85
e 43 88
e 43 92
e 43 99
e 43 101
e 43 108
e 43 114
e 44 49
e 44 50
e 44 54
e 44 57
e 44 58
e 44 62
e 44 70
e 44 78
e 44 81
e 44 82
e 44 83
e 44 96
e 44 98
e 44 101
e 44 105
e 44 106
e 44 114
e 45 46
e 45 49
e 45 50
e 45 51
e 45 59
e 45 60
e 45 65
e 45 67
e 45 70
e 45 76
e 45 77
e 45 78
e 45 88
e 45 89
e 45 95
e 45 96
e 45 101
e 45 106
e 45 107
e 45 113
e 46 48
e 46 51
e 46 52
e 46 54
e 46 59
e 46 66
e 46 82
e 46 88
e 46 90
e 46 93
e 46 97
e 46 100
e 46 109
e 46 110
e 46 112
e 46 115
e 46 116
e 47 51
e 47 53
e 47 58
e 47 62
e 47 65
e 47 67
e 47 69
e 47 72
e 47 73
e 47 81
e 47 83
e 47 86
e 47 87
e 47 90
e 47 93
e 47 96
e 47 97
e 47 98
e 47 101
e 47 104
e 47 106
e 47 115
e 47 116
e 48 52
e 48 53
e 48 56
e 48 62
e 48 63
e 48 65
e 48 66
e 48 67
e 48 68
e 48 70
e 48 72
e 48 82
e 48 89
e 48 91
e 48 98
e 48 100
e 48 102
e 48 109
e 48 115
e 49 52
e 49 56
e 49 60
e 49 64
e 49 68
e 49 69
e 49 76
e 49 81
e 49 84
e 49 87
e 49 88
e 49 90
e 49 94
e 49 99
e 49 103
e 49 104
e 49 111
e 50 51
e 50 57
e 50 60
e 50 69
e 50 70
e 50 72
e 50 77
e 50 82
e 50 92
e 50 94
e 50 98
e 50 102
e 50 103
e 50 105
e 50 106
e 50 107
e 50 109
e 50 113
e 50 114
e 50 116
e 51 52
e 51 53
e 51 58
e 51 59
e 51 66
e 51 70
e 51 84
e 51 86
e 51 89
e 51 95
e 51 98
e 51 101
e 51 104
e 51 107
e 51 109
e 52 53
e 52 55
e 52 57
e 52 59
e 52 61
e 52 65
e 52 69
e 52 71
e 52 72
e 52 73
e 52 74
e 52 75
e 52 76
e 52 84
e 52 85
e 52 88
e 52 94
e 52 95
e 52 104
e 52 109
e 52 112
e 53 59
e 53 60
e 53 62
e 53 71
e 53 73
e 53 74
e 53 76
e 53 80
e 53 83
e 53 86
e 53 91
e 53 98
e 53 99
e 53 100
e 53 110
e 53 115
e 54 55
e 54 57
e 54 61
e 54 62
e 54 63
e 54 65
e 54 67
e 54 70
e 54 71
e 54 75
e 54 81
e 54 82
e 54 84
e 54 86
e 54 93
e 54 101
e 54 109
e 54 110
e 54 111
e 54 112
e 54 116
e 55 66
e 55 70
e 55 72
e 55 79
e 55 80
e 55 84
e 55 87
e 55 88
e 55 89
e 55 101
e 55 104
e 55 107
e 55 108
e 55 111
e 55 115
e 56 58
e 56 61
e 56 67
e 56 71
e 56 72
e 56 73
e 56 74
e 56 78
e 56 86
e 56 90
e 56 94
e 56 97
e 56 100
e 56 102
e 56 111
e 57 58
e 57 59
e 57 67
e 57 68
e 57 75
e 57 77
e 57 78
e 57 82
e 57 87
e 57 90
e 57 97
e 57 101
e 57 103
e 57 104
e 57 109
e 57 110
e 57 113
e 57 115
e 58 59
e 58 61
e 58 62
e 58 63
e 58 64
e 58 66
e 58 67
e 58 69
e 58 70
e 58 72
e 58 73
e 58 78
e 58 79
e 58 82
e 58 83
e 58 86
e 58 89
e 58 92
e 58 96
e 58 98
e 58 99
e 58 110
e 58 111
e 58 113
e 58 114
e 58 116
e 59 62
e 59 63
e 59 64
e 59 65
e 59 66
e 59 75
e 59 82
e 59 85
e 59 90
e 59 91
e 59 92
e 59 93
e 59 94
e 59 95
e 59 98
e 59 102
e 59 106
e 59 107
e 59 109
e 59 110
e 59 116
e 60 61
e 60 64
e 60 65
e 60 67
e 60 71
e 60 72
e 60 75
e 60 76
e 60 78
e 60 82
e 60 88
e 60 92
e 60 93
e 60 94
e 60 95
e 60 98
e 60 99
e 60 100
e 60 102
e 60 107
e 60 108
e 60 110
e 61 62
e 61 64
e 61 67
e 61 68
e 61 69
e 61 75
e 61 77
e 61 83
e 61 89
e 61 92
e 61 93
e 61 95
e 61 99
e 61 102
e 61 109
e 61 110
e 61 111
e 62 63
e 62 69
e 62 72
e 62 75
e 62 76
e 62 80
e 62 85
e 62 88
e 62 94
e 62 95
e 62 96
e 62 104
e 62 105
e 62 106
e 62 109
e 62 110
e 62 115
e 62 116
e 63 67
e 63 69
e 63 70
e 63 78
e 63 80
e 63 84
e 63 94
e 63 103
e 63 108
e 63 113
e 63 115
e 64 71
e 64 80
e 64 84
e 64 97
e 64 100
e 64 102
e 64 103
e 64 107
e 64 108
e 64 109
e 64 112
e 64 116
e 65 75
e 65 76
e 65 82
e 65 83
e 65 85
e 65 86
e 65 87
e 65 91
e 65 93
e 65 94
e 65 95
e 65 96
e 65 97
e 65 100
e 65 101
e 65 109
e 65 115
e 65 116
e 66 68
e 66 70
e 66 78
e 66 80
e 66 84
e 66 86
e 66 87
e 66 92
e 66 93
e 66 94
e 66 96
e 66 98
e 66 99
e 66 103
e 66 106
e 67 73
e 67 74
e 67 77
e 67 78
e 67 80
e 67 84
e 67 85
e 67 87
e 67 88
e 67 96
e 67 103
e 67 106
e 67 115
e 68 70
e 68 73
e 68 74
e 68 75
e 68 76
e 68 78
e 68 79
e 68 82
e 68 84
e 68 94
e 68 96
e 68 101
e 68 104
e 68 106
e 68 108
e 68 110
e 68 113
e 69 76
e 69 84
e 69 87
e 69 90
e 69 93
e 69 97
e 69 102
e 69 103
e 69 104
e 69 105
e 69 106
e 69 107
e 69 108
e 69 109
e 69 115
e 70 74
e 70 78
e 70 81
e 70 83
e 70 88
e 70 91
e 70 105
e 70 112
e 70 113
e 70 114
e 70 115
e 70 116
e 71 79
e 71 85
e 71 87
e 71 90
e 71 95
e 71 102
e 71 104
e 71 106
e 71 107
e 71 110
e 71 113
e 71 114
e 71 116
e 72 78
e 72 79
e 72 81
e 72 91
e 72 92
e 72 94
e 72 95
e 72 96
e 72 98
e 72 109
e 72 110
e 72 114
e 73 79
e 73 82
e 73 83
e 73 92
e 73 95
e 73 97
e 73 100
e 73 101
e 73 103
e 73 105
e 73 106
e 73 107
e 73 109
e 73 111
e 73 116
e 74 76
e 74 79
e 74 85
e 74 87
e 74 88
e 74 91
e 74 95
e 74 103
e 74 107
e 74 108
e 74 110
e 74 111
e 74 113
e 74 116
e 75 76
e 75 77
e 75 79
e 75 85
e 75 86
e 75 91
e 75 93
e 75 96
e 75 102
e 75 105
e 75 111
e 76 78
e 76 80
e 76 86
e 76 89
e 76 91
e 76 94
e 76 95
e 76 96
e 76 98
e 76 100
e 76 103
e 76 107
e 76 108
e 76 113
e 76 114
e 76 116
e 77 78
e 77 79
e 77 80
e 77 84
e 77 85
e 77 86
e 77 88
e 77 91
e 77 94
e 77 98
e 77 99
e 77 102
e 77 103
e 77 104
e 78 80
e 78 81
e 78 83
e 78 84
e 78 85
e 78 91
e 78 93
e 78 97
e 78 98
e 78 101
e 78 105
e 78 113
e 79 81
e 79 84
e 79 89
e 79 91
e 79 92
e 79 93
e 79 97
e 79 99
e 79 102
e 79 103
e 79 106
e 79 108
e 79 109
e 79 113
e 79 114
e 79 115
e 80 81
e 80 83
e 80 86
e 80 92
e 80 93
e 80 94
e 80 104
e 80 108
e 80 109
e 81 83
e 81 89
e 81 98
e 81 100
e 81 105
e 81 111
e 81 113
e 82 83
e 82 86
e 82 89
e 82 91
e 82 93
e 82 101
e 82 102
e 83 84
e 83 87
e 83 88
e 83 90
e 83 95
e 83 99
e 83 101
e 83 104
e 83 105
e 83 111
e 83 113
e 84 89
e 84 90
e 84 95
e 84 98
e 84 99
e 84 103
e 84 107
e 84 108
e 84 111
e 84 112
e 85 88
e 85 92
e 85 102
e 85 112
e 85 113
e 86 88
e 86 89
e 86 90
e 86 94
e 86 96
e 86 97
e 86 99
e 86 100
e 86 108
e 87 89
e 87 90
e 87 94
e 87 102
e 87 103
e 87 104
e 87 105
e 87 107
e 87 108
e 87 111
e 87 114
e 88 89
e 88 91
e 88 92
e 88 95
e 88 98
e 88 99
e 88 100
e 88 105
e 88 106
e 88 111
e 89 92
e 89 94
e 89 96
e 89 107
e 89 110
e 89 113
e 90 91
e 90 94
e 90 98
e 90 99
e 90 107
e 90 114
e 91 92
e 91 96
e 91 97
e 91 103
e 91 105
e 91 107
e 92 93
e 92 99
e 92 103
e 92 104
e 92 105
e 92 110
e 92 116
e 93 95
e 93 96
e 93 99
e 93 100
e 93 102
e 93 103
e 93 108
e 93 110
e 93 112
e 93 115
e 94 96
e 94 98
e 94 99
e 94 103
e 94 105
e 94 106
e 94 110
e 94 111
e 94 112
e 95 99
e 95 107
e 95 109
e 95 114
e 95 116
e 96 98
e 96 99
e 96 101
e 96 103
e 96 104
e 96 110
e 96 111
e 96 112
e 97 105
e 97 107
e 97 109
e 97 110
e 97 116
e 98 100
e 98 108
e 98 113
e 99 109
e 99 110
e 99 114
e 100 102
e 100 105
e 100 106
e 100 107
e 100 108
e 100 109
e 101 103
e 101 105
e 101 106
e 101 107
e 101 108
e 101 116
e 102 104
e 102 107
e 102 110
e 102 111
e 102 114
e 102 116
e 103 104
e 103 108
e 103 109
e 103 110
e 103 111
e 104 109
e 105 108
e 105 113
e 105 114
e 106 110
e 106 111
e 106 114
e 106 116
e 107 108
e 107 109
e 107 110
e 107 113
e 107 115
e 107 116
e 108 110
e 108 113
e 108 114
e 109 112
e 109 114
e 109 115
e 110 114
e 111 113
e 111 114
e 112 113
e 112 115
e 112 116
e 113 114
e 114 115
e 114 116
